HFVRP/X134-FSMD.vrp
NAME: X134-FSMD
COMMENT: Generated by Uchoa, Pecin, Pessoa, Poggi, Subramanian, and Vidal (2013). Modified by Sadykov, Pessoa and Uchoa (2017). Converted to PyVRP's VRPLIB dialect.
TYPE: HFVRP
DIMENSION: 134
VEHICLES: 399
EDGE_WEIGHT_TYPE: EUC_2D
NODE_COORD_SECTION
1	113	195
2	377	239
3	364	39
4	306	316
5	795	18
6	560	115
7	501	147
8	704	68
9	762	62
10	357	33
11	359	353
12	314	186
13	338	303
14	522	80
15	291	58
16	735	15
17	324	12
18	275	278
19	409	32
20	279	297
21	844	27
22	447	303
23	796	4
24	735	111
25	373	461
26	385	100
27	281	378
28	793	7
29	965	64
30	347	256
31	742	75
32	339	244
33	334	391
34	323	314
35	345	69
36	295	370
37	462	240
38	426	446
39	286	335
40	374	34
41	201	153
42	356	74
43	767	236
44	450	218
45	789	61
46	467	332
47	437	293
48	357	21
49	386	207
50	389	234
51	281	344
52	312	3
53	317	163
54	582	186
55	301	411
56	822	6
57	197	437
58	386	268
59	294	74
60	425	55
61	279	81
62	382	251
63	351	385
64	701	32
65	384	214
66	866	243
67	546	186
68	815	29
69	734	57
70	377	235
71	793	31
72	392	248
73	308	314
74	396	27
75	250	345
76	903	66
77	266	264
78	580	142
79	191	288
80	408	225
81	297	283
82	733	38
83	312	293
84	180	250
85	764	45
86	351	284
87	321	318
88	208	348
89	451	423
90	365	142
91	487	175
92	267	51
93	346	248
94	575	294
95	585	346
96	199	136
97	485	24
98	542	109
99	813	117
100	442	280
101	212	192
102	344	170
103	574	426
104	325	343
105	426	272
106	349	90
107	389	302
108	769	51
109	489	165
110	174	288
111	285	419
112	434	257
113	376	210
114	400	124
115	320	191
116	304	260
117	339	138
118	390	222
119	129	47
120	376	262
121	416	240
122	688	80
123	289	193
124	270	418
125	322	311
126	303	228
127	829	13
128	315	212
129	266	239
130	326	136
131	287	298
132	319	176
133	79	221
134	323	291
DEMAND_SECTION
1	0
2	53
3	73
4	60
5	20
6	23
7	3
8	46
9	28
10	84
11	72
12	64
13	100
14	10
15	74
16	29
17	87
18	95
19	51
20	67
21	17
22	51
23	33
24	12
25	85
26	54
27	79
28	26
29	26
30	58
31	35
32	99
33	97
34	73
35	93
36	54
37	56
38	89
39	86
40	85
41	79
42	60
43	9
44	98
45	23
46	78
47	53
48	92
49	53
50	80
51	54
52	89
53	94
54	47
55	73
56	45
57	90
58	71
59	65
60	77
61	99
62	91
63	91
64	28
65	61
66	26
67	7
68	19
69	12
70	70
71	12
72	52
73	52
74	84
75	89
76	37
77	59
78	42
79	99
80	56
81	64
82	29
83	54
84	73
85	34
86	69
87	95
88	89
89	67
90	63
91	74
92	66
93	92
94	13
95	34
96	95
97	90
98	22
99	16
100	93
101	71
102	83
103	49
104	85
105	73
106	93
107	59
108	39
109	56
110	55
111	55
112	73
113	90
114	74
115	95
116	80
117	70
118	74
119	77
120	89
121	64
122	12
123	74
124	77
125	69
126	85
127	40
128	57
129	53
130	62
131	76
132	72
133	66
134	78
CAPACITY_SECTION
1	437
2	437
3	437
4	437
5	437
6	437
7	437
8	437
9	437
10	437
11	437
12	437
13	437
14	437
15	437
16	437
17	437
18	437
19	437
20	437
21	437
22	437
23	437
24	437
25	437
26	437
27	437
28	437
29	437
30	437
31	437
32	437
33	437
34	437
35	437
36	437
37	437
38	437
39	437
40	437
41	437
42	437
43	437
44	437
45	437
46	437
47	437
48	437
49	437
50	437
51	437
52	437
53	437
54	437
55	437
56	437
57	437
58	437
59	437
60	437
61	437
62	437
63	437
64	437
65	437
66	437
67	437
68	437
69	437
70	437
71	437
72	437
73	437
74	437
75	437
76	437
77	437
78	437
79	437
80	437
81	437
82	437
83	437
84	437
85	437
86	437
87	437
88	437
89	437
90	437
91	437
92	437
93	437
94	437
95	437
96	437
97	437
98	437
99	437
100	437
101	437
102	437
103	437
104	437
105	437
106	437
107	437
108	437
109	437
110	437
111	437
112	437
113	437
114	437
115	437
116	437
117	437
118	437
119	437
120	437
121	437
122	437
123	437
124	437
125	437
126	437
127	437
128	437
129	437
130	437
131	437
132	437
133	437
134	618
135	618
136	618
137	618
138	618
139	618
140	618
141	618
142	618
143	618
144	618
145	618
146	618
147	618
148	618
149	618
150	618
151	618
152	618
153	618
154	618
155	618
156	618
157	618
158	618
159	618
160	618
161	618
162	618
163	618
164	618
165	618
166	618
167	618
168	618
169	618
170	618
171	618
172	618
173	618
174	618
175	618
176	618
177	618
178	618
179	618
180	618
181	618
182	618
183	618
184	618
185	618
186	618
187	618
188	618
189	618
190	618
191	618
192	618
193	618
194	618
195	618
196	618
197	618
198	618
199	618
200	618
201	618
202	618
203	618
204	618
205	618
206	618
207	618
208	618
209	618
210	618
211	618
212	618
213	618
214	618
215	618
216	618
217	618
218	618
219	618
220	618
221	618
222	618
223	618
224	618
225	618
226	618
227	618
228	618
229	618
230	618
231	618
232	618
233	618
234	618
235	618
236	618
237	618
238	618
239	618
240	618
241	618
242	618
243	618
244	618
245	618
246	618
247	618
248	618
249	618
250	618
251	618
252	618
253	618
254	618
255	618
256	618
257	618
258	618
259	618
260	618
261	618
262	618
263	618
264	618
265	618
266	618
267	874
268	874
269	874
270	874
271	874
272	874
273	874
274	874
275	874
276	874
277	874
278	874
279	874
280	874
281	874
282	874
283	874
284	874
285	874
286	874
287	874
288	874
289	874
290	874
291	874
292	874
293	874
294	874
295	874
296	874
297	874
298	874
299	874
300	874
301	874
302	874
303	874
304	874
305	874
306	874
307	874
308	874
309	874
310	874
311	874
312	874
313	874
314	874
315	874
316	874
317	874
318	874
319	874
320	874
321	874
322	874
323	874
324	874
325	874
326	874
327	874
328	874
329	874
330	874
331	874
332	874
333	874
334	874
335	874
336	874
337	874
338	874
339	874
340	874
341	874
342	874
343	874
344	874
345	874
346	874
347	874
348	874
349	874
350	874
351	874
352	874
353	874
354	874
355	874
356	874
357	874
358	874
359	874
360	874
361	874
362	874
363	874
364	874
365	874
366	874
367	874
368	874
369	874
370	874
371	874
372	874
373	874
374	874
375	874
376	874
377	874
378	874
379	874
380	874
381	874
382	874
383	874
384	874
385	874
386	874
387	874
388	874
389	874
390	874
391	874
392	874
393	874
394	874
395	874
396	874
397	874
398	874
399	874
VEHICLES_UNIT_DISTANCE_COST_SECTION
1	83
2	83
3	83
4	83
5	83
6	83
7	83
8	83
9	83
10	83
11	83
12	83
13	83
14	83
15	83
16	83
17	83
18	83
19	83
20	83
21	83
22	83
23	83
24	83
25	83
26	83
27	83
28	83
29	83
30	83
31	83
32	83
33	83
34	83
35	83
36	83
37	83
38	83
39	83
40	83
41	83
42	83
43	83
44	83
45	83
46	83
47	83
48	83
49	83
50	83
51	83
52	83
53	83
54	83
55	83
56	83
57	83
58	83
59	83
60	83
61	83
62	83
63	83
64	83
65	83
66	83
67	83
68	83
69	83
70	83
71	83
72	83
73	83
74	83
75	83
76	83
77	83
78	83
79	83
80	83
81	83
82	83
83	83
84	83
85	83
86	83
87	83
88	83
89	83
90	83
91	83
92	83
93	83
94	83
95	83
96	83
97	83
98	83
99	83
100	83
101	83
102	83
103	83
104	83
105	83
106	83
107	83
108	83
109	83
110	83
111	83
112	83
113	83
114	83
115	83
116	83
117	83
118	83
119	83
120	83
121	83
122	83
123	83
124	83
125	83
126	83
127	83
128	83
129	83
130	83
131	83
132	83
133	83
134	100
135	100
136	100
137	100
138	100
139	100
140	100
141	100
142	100
143	100
144	100
145	100
146	100
147	100
148	100
149	100
150	100
151	100
152	100
153	100
154	100
155	100
156	100
157	100
158	100
159	100
160	100
161	100
162	100
163	100
164	100
165	100
166	100
167	100
168	100
169	100
170	100
171	100
172	100
173	100
174	100
175	100
176	100
177	100
178	100
179	100
180	100
181	100
182	100
183	100
184	100
185	100
186	100
187	100
188	100
189	100
190	100
191	100
192	100
193	100
194	100
195	100
196	100
197	100
198	100
199	100
200	100
201	100
202	100
203	100
204	100
205	100
206	100
207	100
208	100
209	100
210	100
211	100
212	100
213	100
214	100
215	100
216	100
217	100
218	100
219	100
220	100
221	100
222	100
223	100
224	100
225	100
226	100
227	100
228	100
229	100
230	100
231	100
232	100
233	100
234	100
235	100
236	100
237	100
238	100
239	100
240	100
241	100
242	100
243	100
244	100
245	100
246	100
247	100
248	100
249	100
250	100
251	100
252	100
253	100
254	100
255	100
256	100
257	100
258	100
259	100
260	100
261	100
262	100
263	100
264	100
265	100
266	100
267	116
268	116
269	116
270	116
271	116
272	116
273	116
274	116
275	116
276	116
277	116
278	116
279	116
280	116
281	116
282	116
283	116
284	116
285	116
286	116
287	116
288	116
289	116
290	116
291	116
292	116
293	116
294	116
295	116
296	116
297	116
298	116
299	116
300	116
301	116
302	116
303	116
304	116
305	116
306	116
307	116
308	116
309	116
310	116
311	116
312	116
313	116
314	116
315	116
316	116
317	116
318	116
319	116
320	116
321	116
322	116
323	116
324	116
325	116
326	116
327	116
328	116
329	116
330	116
331	116
332	116
333	116
334	116
335	116
336	116
337	116
338	116
339	116
340	116
341	116
342	116
343	116
344	116
345	116
346	116
347	116
348	116
349	116
350	116
351	116
352	116
353	116
354	116
355	116
356	116
357	116
358	116
359	116
360	116
361	116
362	116
363	116
364	116
365	116
366	116
367	116
368	116
369	116
370	116
371	116
372	116
373	116
374	116
375	116
376	116
377	116
378	116
379	116
380	116
381	116
382	116
383	116
384	116
385	116
386	116
387	116
388	116
389	116
390	116
391	116
392	116
393	116
394	116
395	116
396	116
397	116
398	116
399	116
DEPOT_SECTION
1
EOF
