HFVRP/X134-FSMD.sol
Route #1: 132
Route #2: 118 14 58 60 95
Route #3: 
Route #4: 
Route #5: 
Route #6: 
Route #7: 
Route #8: 
Route #9: 
Route #10: 
Route #11: 
Route #12: 
Route #13: 
Route #14: 
Route #15: 
Route #16: 
Route #17: 
Route #18: 
Route #19: 
Route #20: 
Route #21: 
Route #22: 
Route #23: 
Route #24: 
Route #25: 
Route #26: 
Route #27: 
Route #28: 
Route #29: 
Route #30: 
Route #31: 
Route #32: 
Route #33: 
Route #34: 
Route #35: 
Route #36: 
Route #37: 
Route #38: 
Route #39: 
Route #40: 
Route #41: 
Route #42: 
Route #43: 
Route #44: 
Route #45: 
Route #46: 
Route #47: 
Route #48: 
Route #49: 
Route #50: 
Route #51: 
Route #52: 
Route #53: 
Route #54: 
Route #55: 
Route #56: 
Route #57: 
Route #58: 
Route #59: 
Route #60: 
Route #61: 
Route #62: 
Route #63: 
Route #64: 
Route #65: 
Route #66: 
Route #67: 
Route #68: 
Route #69: 
Route #70: 
Route #71: 
Route #72: 
Route #73: 
Route #74: 
Route #75: 
Route #76: 
Route #77: 
Route #78: 
Route #79: 
Route #80: 
Route #81: 
Route #82: 
Route #83: 
Route #84: 
Route #85: 
Route #86: 
Route #87: 
Route #88: 
Route #89: 
Route #90: 
Route #91: 
Route #92: 
Route #93: 
Route #94: 
Route #95: 
Route #96: 
Route #97: 
Route #98: 
Route #99: 
Route #100: 
Route #101: 
Route #102: 
Route #103: 
Route #104: 
Route #105: 
Route #106: 
Route #107: 
Route #108: 
Route #109: 
Route #110: 
Route #111: 
Route #112: 
Route #113: 
Route #114: 
Route #115: 
Route #116: 
Route #117: 
Route #118: 
Route #119: 
Route #120: 
Route #121: 
Route #122: 
Route #123: 
Route #124: 
Route #125: 
Route #126: 
Route #127: 
Route #128: 
Route #129: 
Route #130: 
Route #131: 
Route #132: 
Route #133: 
Route #134: 
Route #135: 
Route #136: 
Route #137: 
Route #138: 
Route #139: 
Route #140: 
Route #141: 
Route #142: 
Route #143: 
Route #144: 
Route #145: 
Route #146: 
Route #147: 
Route #148: 
Route #149: 
Route #150: 
Route #151: 
Route #152: 
Route #153: 
Route #154: 
Route #155: 
Route #156: 
Route #157: 
Route #158: 
Route #159: 
Route #160: 
Route #161: 
Route #162: 
Route #163: 
Route #164: 
Route #165: 
Route #166: 
Route #167: 
Route #168: 
Route #169: 
Route #170: 
Route #171: 
Route #172: 
Route #173: 
Route #174: 
Route #175: 
Route #176: 
Route #177: 
Route #178: 
Route #179: 
Route #180: 
Route #181: 
Route #182: 
Route #183: 
Route #184: 
Route #185: 
Route #186: 
Route #187: 
Route #188: 
Route #189: 
Route #190: 
Route #191: 
Route #192: 
Route #193: 
Route #194: 
Route #195: 
Route #196: 
Route #197: 
Route #198: 
Route #199: 
Route #200: 
Route #201: 
Route #202: 
Route #203: 
Route #204: 
Route #205: 
Route #206: 
Route #207: 
Route #208: 
Route #209: 
Route #210: 
Route #211: 
Route #212: 
Route #213: 
Route #214: 
Route #215: 
Route #216: 
Route #217: 
Route #218: 
Route #219: 
Route #220: 
Route #221: 
Route #222: 
Route #223: 
Route #224: 
Route #225: 
Route #226: 
Route #227: 
Route #228: 
Route #229: 
Route #230: 
Route #231: 
Route #232: 
Route #233: 
Route #234: 
Route #235: 
Route #236: 
Route #237: 
Route #238: 
Route #239: 
Route #240: 
Route #241: 
Route #242: 
Route #243: 
Route #244: 
Route #245: 
Route #246: 
Route #247: 
Route #248: 
Route #249: 
Route #250: 
Route #251: 
Route #252: 
Route #253: 
Route #254: 
Route #255: 
Route #256: 
Route #257: 
Route #258: 
Route #259: 
Route #260: 
Route #261: 
Route #262: 
Route #263: 
Route #264: 
Route #265: 
Route #266: 
Route #267: 128 125 31 92 29 85 12 133 80 17 76
Route #268: 113 97 5 77 121 7 63 15 81 68 30 23 98 44 8 107 84 70 4 27 22 67 55 126 20 75 28 65 42 53 66
Route #269: 26 35 24 37 88 102 94 93 45 21 46 99 104 71
Route #270: 91 51 16 47 9 2 39 73 18 41 34
Route #271: 112 48 64 117 49 69 1 61 119 57 106 115
Route #272: 105 25 59 96 13 6 108 90 43 36 111 120 79 127
Route #273: 83 103 10 62 32 54 110 123 56 87 109
Route #274: 78 74 50 38 3 72 86 33 124 82 130 19
Route #275: 40 129 116 89 101 52 131 114 11 122 100
Route #276: 
Route #277: 
Route #278: 
Route #279: 
Route #280: 
Route #281: 
Route #282: 
Route #283: 
Route #284: 
Route #285: 
Route #286: 
Route #287: 
Route #288: 
Route #289: 
Route #290: 
Route #291: 
Route #292: 
Route #293: 
Route #294: 
Route #295: 
Route #296: 
Route #297: 
Route #298: 
Route #299: 
Route #300: 
Route #301: 
Route #302: 
Route #303: 
Route #304: 
Route #305: 
Route #306: 
Route #307: 
Route #308: 
Route #309: 
Route #310: 
Route #311: 
Route #312: 
Route #313: 
Route #314: 
Route #315: 
Route #316: 
Route #317: 
Route #318: 
Route #319: 
Route #320: 
Route #321: 
Route #322: 
Route #323: 
Route #324: 
Route #325: 
Route #326: 
Route #327: 
Route #328: 
Route #329: 
Route #330: 
Route #331: 
Route #332: 
Route #333: 
Route #334: 
Route #335: 
Route #336: 
Route #337: 
Route #338: 
Route #339: 
Route #340: 
Route #341: 
Route #342: 
Route #343: 
Route #344: 
Route #345: 
Route #346: 
Route #347: 
Route #348: 
Route #349: 
Route #350: 
Route #351: 
Route #352: 
Route #353: 
Route #354: 
Route #355: 
Route #356: 
Route #357: 
Route #358: 
Route #359: 
Route #360: 
Route #361: 
Route #362: 
Route #363: 
Route #364: 
Route #365: 
Route #366: 
Route #367: 
Route #368: 
Route #369: 
Route #370: 
Route #371: 
Route #372: 
Route #373: 
Route #374: 
Route #375: 
Route #376: 
Route #377: 
Route #378: 
Route #379: 
Route #380: 
Route #381: 
Route #382: 
Route #383: 
Route #384: 
Route #385: 
Route #386: 
Route #387: 
Route #388: 
Route #389: 
Route #390: 
Route #391: 
Route #392: 
Route #393: 
Route #394: 
Route #395: 
Route #396: 
Route #397: 
Route #398: 
Route #399: 
Cost: 10258.31
